NAME: cuum170.tsp
TYPE: TSP
COMMENT: User-generated TSP file
DIMENSION: 170
EDGE_WEIGHT_TYPE: EUC_2D
NODE_COORD_SECTION
1 118.0 168.0
2 157.0 131.0
3 138.0 167.0
4 99.0 121.0
5 117.0 138.0
6 69.0 103.0
7 14.0 32.0
8 138.0 67.0
9 149.0 160.0
10 30.0 29.0
11 155.0 124.0
12 169.0 46.0
13 104.0 16.0
14 96.0 146.0
15 140.0 46.0
16 165.0 100.0
17 114.0 55.0
18 69.0 27.0
19 139.0 93.0
20 113.0 94.0
21 131.0 43.0
22 132.0 132.0
23 148.0 142.0
24 36.0 127.0
25 165.0 7.0
26 29.0 59.0
27 123.0 106.0
28 14.0 159.0
29 86.0 67.0
30 19.0 49.0
31 153.0 112.0
32 4.0 52.0
33 60.0 62.0
34 35.0 81.0
35 115.0 24.0
36 62.0 43.0
37 145.0 32.0
38 7.0 1.0
39 27.0 6.0
40 104.0 14.0
41 34.0 68.0
42 34.0 43.0
43 58.0 39.0
44 38.0 109.0
45 88.0 101.0
46 27.0 150.0
47 148.0 62.0
48 48.0 143.0
49 4.0 22.0
50 159.0 17.0
51 14.0 13.0
52 30.0 118.0
53 49.0 139.0
54 6.0 15.0
55 31.0 166.0
56 120.0 92.0
57 101.0 158.0
58 155.0 108.0
59 53.0 150.0
60 28.0 138.0
61 67.0 84.0
62 159.0 161.0
63 103.0 51.0
64 164.0 15.0
65 103.0 170.0
66 20.0 164.0
67 160.0 144.0
68 45.0 101.0
69 71.0 51.0
70 63.0 53.0
71 108.0 101.0
72 88.0 36.0
73 150.0 55.0
74 70.0 60.0
75 55.0 33.0
76 58.0 15.0
77 55.0 94.0
78 135.0 72.0
79 164.0 30.0
80 69.0 64.0
81 101.0 23.0
82 43.0 127.0
83 161.0 120.0
84 143.0 81.0
85 50.0 156.0
86 25.0 2.0
87 142.0 138.0
88 92.0 133.0
89 40.0 11.0
90 13.0 66.0
91 108.0 77.0
92 70.0 76.0
93 41.0 71.0
94 43.0 96.0
95 165.0 169.0
96 29.0 4.0
97 115.0 65.0
98 29.0 119.0
99 140.0 141.0
100 1.0 164.0
101 10.0 19.0
102 123.0 165.0
103 39.0 98.0
104 114.0 127.0
105 145.0 121.0
106 10.0 33.0
107 119.0 3.0
108 55.0 3.0
109 14.0 101.0
110 140.0 4.0
111 4.0 98.0
112 27.0 162.0
113 149.0 112.0
114 65.0 50.0
115 10.0 129.0
116 32.0 84.0
117 136.0 1.0
118 87.0 96.0
119 101.0 149.0
120 96.0 83.0
121 82.0 10.0
122 80.0 27.0
123 56.0 140.0
124 114.0 158.0
125 134.0 163.0
126 123.0 99.0
127 92.0 4.0
128 66.0 87.0
129 36.0 159.0
130 36.0 163.0
131 34.0 97.0
132 47.0 45.0
133 134.0 155.0
134 63.0 163.0
135 67.0 63.0
136 30.0 126.0
137 166.0 132.0
138 4.0 42.0
139 129.0 94.0
140 53.0 133.0
141 84.0 138.0
142 67.0 170.0
143 24.0 143.0
144 106.0 94.0
145 69.0 121.0
146 111.0 128.0
147 126.0 120.0
148 109.0 115.0
149 130.0 114.0
150 58.0 21.0
151 62.0 56.0
152 134.0 72.0
153 90.0 127.0
154 27.0 96.0
155 10.0 133.0
156 35.0 89.0
157 94.0 54.0
158 113.0 144.0
159 148.0 124.0
160 20.0 104.0
161 168.0 17.0
162 140.0 12.0
163 20.0 116.0
164 44.0 95.0
165 86.0 41.0
166 143.0 165.0
167 160.0 162.0
168 88.0 94.0
169 105.0 105.0
170 153.0 136.0
EOF





